60
14 8
21 37
3 30
4 71
6 44
30 17
18 25
16 38
28 77
25 34
28 28
6 7
5 44
12 71
20 12
29 89
15 33
24 41
3 99
2 59
25 68
4 2
1 64
20 49
12 90
18 47
3 2
7 95
15 47
10 8
18 26
29 28
11 72
3 72
3 83
21 16
27 57
23 46
5 60
9 64
10 28
1 18
3 62
18 78
17 29
5 17
27 85
28 13
16 17
11 82
18 70
29 53
9 66
25 51
24 93
20 74
21 24
15 1
20 55
24 45
